	Costo	Iter.	Tiempo
1	531,18	323	38,304
2	865,92	153	31,054
3	865,3	184	85,753
4	1094,58	337	427,535
5	1399,39	200	510,032
6	560,96	204	20,99
7	943,61	149	185,005
8	872,45	231	259,073
9	1227,74	155	3257,072
10	1516,83	210	14654,882
11	1253,44	198	153,34
12	840,33	153	64,272
13	1608,54	247	220,747
14	887,55	160	72,925
